29
1 0 32
2 0 37
2 1 22
3 0 16
3 1 30
3 2 7
4 0 25
4 1 11
4 2 8
4 3 29
5 0 15
5 1 32
5 2 19
5 3 3
5 4 33
6 0 24
6 1 25
6 2 29
6 3 14
6 4 9
6 5 10
7 0 37
7 1 9
7 2 3
7 3 28
7 4 3
7 5 12
7 6 36
8 0 35
8 1 9
8 2 22
8 3 6
8 4 9
8 5 17
8 6 6
8 7 8
9 0 17
9 1 32
9 2 14
9 3 5
9 4 34
9 5 30
9 6 38
9 7 10
9 8 21
10 0 15
10 1 24
10 2 34
10 3 38
10 4 11
10 5 2
10 6 39
10 7 27
10 8 22
10 9 19
11 0 19
11 1 38
11 2 34
11 3 28
11 4 31
11 5 37
11 6 19
11 7 13
11 8 20
11 9 24
11 10 1
12 0 9
12 1 7
12 2 33
12 3 8
12 4 21
12 5 5
12 6 33
12 7 28
12 8 15
12 9 24
12 10 14
12 11 9
13 0 5
13 1 31
13 2 32
13 3 38
13 4 9
13 5 5
13 6 1
13 7 13
13 8 27
13 9 30
13 10 11
13 11 28
13 12 23
14 0 2
14 1 31
14 2 12
14 3 18
14 4 11
14 5 1
14 6 32
14 7 20
14 8 19
14 9 9
14 10 31
14 11 22
14 12 23
14 13 2
15 0 26
15 1 22
15 2 7
15 3 21
15 4 14
15 5 8
15 6 15
15 7 17
15 8 39
15 9 10
15 10 29
15 11 30
15 12 18
15 13 19
15 14 18
16 0 4
16 1 4
16 2 39
16 3 21
16 4 36
16 5 30
16 6 36
16 7 21
16 8 11
16 9 14
16 10 17
16 11 37
16 12 8
16 13 15
16 14 13
16 15 13
17 0 32
17 1 2
17 2 10
17 3 2
17 4 9
17 5 5
17 6 32
17 7 33
17 8 13
17 9 29
17 10 7
17 11 35
17 12 15
17 13 6
17 14 5
17 15 34
17 16 33
18 0 31
18 1 30
18 2 7
18 3 38
18 4 18
18 5 28
18 6 30
18 7 29
18 8 10
18 9 9
18 10 17
18 11 31
18 12 21
18 13 18
18 14 13
18 15 35
18 16 9
18 17 34
19 0 22
19 1 11
19 2 7
19 3 6
19 4 5
19 5 3
19 6 16
19 7 34
19 8 1
19 9 8
19 10 11
19 11 22
19 12 28
19 13 35
19 14 5
19 15 22
19 16 17
19 17 30
19 18 36
20 0 4
20 1 17
20 2 22
20 3 28
20 4 35
20 5 23
20 6 18
20 7 10
20 8 8
20 9 6
20 10 19
20 11 38
20 12 29
20 13 35
20 14 12
20 15 34
20 16 20
20 17 15
20 18 24
20 19 19
21 0 1
21 1 21
21 2 23
21 3 33
21 4 15
21 5 21
21 6 22
21 7 29
21 8 30
21 9 32
21 10 15
21 11 9
21 12 19
21 13 22
21 14 24
21 15 37
21 16 12
21 17 7
21 18 8
21 19 17
21 20 22
22 0 20
22 1 11
22 2 3
22 3 38
22 4 22
22 5 23
22 6 35
22 7 16
22 8 23
22 9 39
22 10 15
22 11 5
22 12 11
22 13 37
22 14 18
22 15 38
22 16 15
22 17 7
22 18 35
22 19 28
22 20 18
22 21 7
23 0 20
23 1 21
23 2 10
23 3 19
23 4 32
23 5 5
23 6 32
23 7 20
23 8 15
23 9 10
23 10 32
23 11 21
23 12 31
23 13 21
23 14 37
23 15 9
23 16 27
23 17 26
23 18 2
23 19 25
23 20 31
23 21 23
23 22 7
24 0 24
24 1 2
24 2 16
24 3 8
24 4 5
24 5 7
24 6 23
24 7 26
24 8 29
24 9 18
24 10 7
24 11 4
24 12 25
24 13 14
24 14 37
24 15 13
24 16 17
24 17 14
24 18 30
24 19 28
24 20 1
24 21 15
24 22 13
24 23 35
25 0 6
25 1 3
25 2 12
25 3 36
25 4 11
25 5 16
25 6 28
25 7 23
25 8 4
25 9 6
25 10 22
25 11 15
25 12 33
25 13 1
25 14 18
25 15 14
25 16 2
25 17 36
25 18 24
25 19 35
25 20 11
25 21 10
25 22 13
25 23 14
25 24 23
26 0 7
26 1 16
26 2 22
26 3 4
26 4 28
26 5 6
26 6 4
26 7 4
26 8 31
26 9 28
26 10 27
26 11 35
26 12 13
26 13 29
26 14 4
26 15 35
26 16 24
26 17 7
26 18 17
26 19 35
26 20 3
26 21 16
26 22 28
26 23 15
26 24 15
26 25 15
27 0 2
27 1 22
27 2 16
27 3 29
27 4 33
27 5 10
27 6 24
27 7 11
27 8 1
27 9 30
27 10 30
27 11 32
27 12 31
27 13 27
27 14 37
27 15 25
27 16 32
27 17 38
27 18 26
27 19 35
27 20 29
27 21 29
27 22 5
27 23 32
27 24 13
27 25 36
27 26 37
28 0 18
28 1 25
28 2 17
28 3 17
28 4 15
28 5 6
28 6 17
28 7 18
28 8 24
28 9 28
28 10 10
28 11 2
28 12 15
28 13 23
28 14 25
28 15 2
28 16 4
28 17 8
28 18 17
28 19 22
28 20 5
28 21 6
28 22 12
28 23 39
28 24 15
28 25 30
28 26 18
28 27 24
